NAME: tsp25_22
COMMENT: 25-tsp problem (Padberg/Rinaldi)
TYPE: TSP
DIMENSION: 25
EDGE_WEIGHT_TYPE : EUC_2D
NODE_COORD_SECTION
1.00 39.28 5.92
2.00 17.74 38.23
3.00 26.17 25.75
4.00 0.93 13.83
5.00 29.52 29.05
6.00 14.88 21.29
7.00 21.56 15.68
8.00 23.75 7.35
9.00 22.00 37.40
10.00 37.45 25.60
11.00 9.17 21.76
12.00 32.24 34.18
13.00 16.05 33.69
14.00 27.36 7.97
15.00 3.33 21.91
16.00 28.25 17.37
17.00 37.49 36.85
18.00 33.86 17.42
19.00 0.48 24.97
20.00 39.78 10.89
21.00 27.76 39.92
22.00 32.37 30.88
23.00 31.82 0.98
24.00 30.35 15.41
25.00 13.56 13.09
